=1
=2
=0IBM ILOG CPLEX   42.1.0 cb854401 Feb 1, 2023           LEG x86 64bit/Linux    
=1
--- GAMS/Cplex licensed for continuous and discrete problems.
=2
=C
=1
=CReading parameter(s) from "/storage/home/ejm6426/scratch/scRBA/parameterization/kapp/datasets/Yu2021_chemoClimNH4_010_using_rtRBA_methods/min_flux_violation/cplex.opt"
=C>>  optcr = 1E-12
=C>>  optca = 1E-12
=C>>  eprhs = 1E-9
=C>> 
=CFinished reading from "/storage/home/ejm6426/scratch/scRBA/parameterization/kapp/datasets/Yu2021_chemoClimNH4_010_using_rtRBA_methods/min_flux_violation/cplex.opt"
=2
=C
=1
--- GMO setup time: 0.00s
=2
=1
--- Space for names approximately 0.48 Mb
=2
=1
--- Use option 'names no' to turn use of names off
=2
=1
--- GMO memory 5.76 Mb (peak 5.84 Mb)
=2
=1
--- Dictionary memory 0.00 Mb
=2
=1
--- Cplex 22.1.1.0 link memory 0.26 Mb (peak 1.91 Mb)
=2
=1
--- Starting Cplex
=2
=C
Version identifier: 22.1.1.0 | 2022-11-28 | 9160aff4d
CPXPARAM_Advance                                 2
CPXPARAM_Threads                                 1
CPXPARAM_MIP_Display                             4
CPXPARAM_MIP_Pool_Capacity                       0
CPXPARAM_Simplex_Limits_Iterations               1000000
CPXPARAM_Simplex_Tolerances_Feasibility          1.0000000000000001e-09
CPXPARAM_TimeLimit                               1000
CPXPARAM_MIP_Tolerances_AbsMIPGap                9.9999999999999998e-13
CPXPARAM_MIP_Tolerances_MIPGap                   9.9999999999999998e-13
Tried aggregator 1 time.
LP Presolve eliminated 2343 rows and 6144 columns.
Aggregator did 598 substitutions.
Reduced LP has 1561 rows, 3940 columns, and 42748 nonzeros.
Presolve time = 0.08 sec. (23.58 ticks)

Iteration log . . .
Iteration:     1   Dual objective     =   -1429328171.498740
Iteration:   109   Dual objective     =      21836475.352100
Iteration:   222   Dual objective     =      81941048.833054
Iteration:   300   Dual objective     =      95597917.576493
Iteration:   398   Dual objective     =     105496263.512648
Iteration:   490   Dual objective     =     109683075.378332
Perturbation started.
Iteration:   505   Dual objective     =        -81899.679432
Iteration:   598   Dual objective     =           -30.974155
Iteration:   690   Dual objective     =             7.474607
Iteration:   787   Dual objective     =            80.175452
Iteration:   880   Dual objective     =           123.931490
Removing perturbation.
Iteration:   930   Dual objective     =     -87222333.791931
Iteration:  1071   Dual objective     =      -5648614.916892
Iteration:  1236   Dual objective     =          -566.109809
Markowitz threshold set to 0.1
Iteration:  1363   Dual objective     =            59.909949
Iteration:  1445   Dual objective     =           555.113801
Removing shift (35).
=C
=1
--- LP status (3): infeasible.
=2
=1
--- Cplex Time: 0.38sec (det. 178.02 ticks)

=2
=C
=CModel has been proven infeasible
=C
